#1.模型设置
# x [-1 1 3] y [1 1 0] z [3 -3 2]
# Nb: 3.300803 Cu:3.615000
units           metal
atom_style      atomic
boundary        p p p       
neighbor        1.0 bin
neigh_modify    every 1 delay 0 check yes
timestep        0.001 
shell mkdir deform
# 单晶Ni的建模
lattice		fcc 3.615
region		box block 0 80 0 40 0 3 units lattice
# 创建box的时候设置三种原子, 以用于区分牛顿层, 恒温层还有固定层
# 此外由于本in文件使用eam势函数, 所以不管在create_box命令中定义
# 多少种原子类型, 其实它们均是Ni原子
create_box	1 box     
create_atoms	1 box
# 定义势函数
pair_style eam 
pair_coeff * * Cu_u3.eam
# 创建中心裂纹
region crack block $(lx/2-35) $(lx/2+35) $(ly/2-2) $(ly/2+2) INF INF  units box
# 创建边缘裂纹
# region up plane 790 0 $(lz/2) 1 0 -10  units box        # 裂纹距离界面大概5nm
# region down plane 790 0 $(lz/2) 1 0 10 units box
# region crack intersect 2 up down
# 裂纹距离界面的长度大约为70埃米。
# 删除裂纹
delete_atoms region crack 
# 导出模型
write_data watch.lmp 
# 首先进行能量最小化
thermo 100
thermo_style custom step cpu temp etotal pxx pyy pzz  
min_style cg
minimize 1e-10 1e-10 5000 5000
reset_timestep  0
write_data after_minimized.lmp 
# 重新定义热力学输出
thermo 1000
thermo_style custom step cpu temp etotal pxx pyy pzz 
# 接下来开始弛豫
velocity all create 10.0 1616161 dist gaussian
fix 1 all npt temp 10 10 0.1 aniso 0.0 0.0 1.0        # 采用npt控温控压
run 10000                   # 弛豫100ps
unfix  1
reset_timestep  0
#计算应力并输出云图
compute s all stress/atom NULL 
compute pot all pe/atom 
variable ave_v equal vol/count(all)              # 每个原子的平均体积
variable sx atom c_s[1]/10000/${ave_v}           # x方向的应力
variable sy atom c_s[2]/10000/${ave_v}           # y方向的应力
variable sz atom c_s[3]/10000/${ave_v}           # z方向的应力
variable sxy atom c_s[4]/10000/${ave_v}          # x方向的应力
variable sxz atom c_s[5]/10000/${ave_v}          # y方向的应力
variable syz atom c_s[6]/10000/${ave_v}          # z方向的应力
# 进行一些参数的计算
variable srate equal 2e9            # 期望以s为单位的应变速率
variable rrate equal v_srate/1e12   # 以ps为单位的应变速率
# 重新定义热力学输出
thermo 2000
thermo_style custom step cpu temp etotal pxx pyy pzz
# 弛豫完成之后开始拉伸
fix 1 all npt temp 10 10 0.1 x 0.0 0.0 1.0 z 0.0 0.0 1.0             # 采用npt控温控压
fix 2 all deform 1000 y erate ${rrate} remap x      # 采用deform拉伸
dump 1 all custom/gz 5000 deform/Deform_*.gz id type x y z mass c_pot v_sx v_sy v_sz v_sxy v_sxz v_syz
run 100000          # 运行10w步，获得20%的总应变